--Link1--
%nproc=8
%chk=ala
%mem=2GB
#HF/6-31G* SCF=tight Test Pop=MK iop(6/33=2) iop(6/42=6) popt

remark line goes here

0   1
    H
    C    1      b2
    H    2      b3    1      a3
    H    2      b4    3      a4    1      t4
    C    2      b5    4      a5    1      t5
    O    5      b6    2      a6    1      t6
    N    5      b7    2      a7    1      t7
    H    7      b8    5      a8    2      t8
    C    7      b9    5      a9    2      t9
    H    9     b10    7     a10    5     t10
    C    9     b11    7     a11    5     t11
    H   11     b12    9     a12    7     t12
    H   11     b13    9     a13    7     t13
    H   11     b14    9     a14    7     t14
    C    9     b15    7     a15    5     t15
    O   15     b16    9     a16    7     t16
    N   15     b17    9     a17    7     t17
    H   17     b18   15     a18    9     t18
    C   17     b19   15     a19    9     t19
    H   19     b20   17     a20   15     t20
    H   19     b21   17     a21   15     t21
    H   19     b22   17     a22   15     t22
Variables:
b2=   1.0838
b3=   1.0867
a3= 108.2351
b4=   1.0799
a4= 108.4771
t4= 119.1758
b5=   1.5124
a5= 108.8301
t5= 123.4044
b6=   1.1976
a6= 122.5499
t6= 145.5082
b7=   1.3616
a7= 115.4914
t7= -34.7658
b8=   0.9932
a8= 118.1512
t8=  -7.7754
b9=   1.4546
a9= 121.8428
t9= -169.6131
b10=   1.0834
a10= 109.7617
t10=  56.4296
b11=   1.5272
a11= 109.7072
t11= 176.7473
b12=   1.0826
a12= 109.6522
t12= -179.6941
b13=   1.0861
a13= 110.5279
t13= -60.5981
b14=   1.0849
a14= 111.1636
t14=  60.2852
b15=   1.5296
a15= 113.9363
t15= -60.0069 F
b16=   1.1992
a16= 119.5523
t16= 147.4460
b17=   1.3513
a17= 116.5387
t17= -39.9733 F
b18=   0.9920
a18= 116.8953
t18=  21.3705
b19=   1.4479
a19= 120.4112
t19= 175.7741
b20=   1.0806
a20= 109.3712
t20=  48.9803
b21=   1.0830
a21= 108.8716
t21= 167.9490
b22=   1.0855
a22= 112.0104
t22= -71.2640


