--Link1--
%chk=ala
#B3LYP/6-31G* opt scf=tight

remark line goes here

0   1
    H    3.2240000000       -0.4330000000       -1.4560000000     
    C    3.1830000000       -0.6600000000       -0.3970000000     
    H    3.9120000000       -0.0360000000        0.1130000000     
    H    3.4440000000       -1.6950000000       -0.2330000000     
    C    1.8150000000       -0.4020000000        0.1940000000     
    O    1.3540000000       -1.0760000000        1.0700000000     
    N    1.1390000000        0.6560000000       -0.3330000000     
    H    1.6190000000        1.2490000000       -0.9690000000     
    C   -0.0810000000        1.1660000000        0.2730000000     
    H    0.1070000000        1.4330000000        1.3060000000     
    C   -0.5600000000        2.3980000000       -0.4920000000     
    H   -1.4650000000        2.7800000000       -0.0370000000     
    H    0.1910000000        3.1820000000       -0.4600000000     
    H   -0.7700000000        2.1580000000       -1.5290000000     
    C   -1.2120000000        0.1390000000        0.3500000000     
    O   -1.9850000000        0.1780000000        1.2660000000     
    N   -1.3650000000       -0.6720000000       -0.7200000000     
    H   -0.5790000000       -0.7830000000       -1.3150000000     
    C   -2.3490000000       -1.7340000000       -0.7000000000     
    H   -3.2970000000       -1.3380000000       -0.3650000000     
    H   -2.4650000000       -2.1230000000       -1.7040000000     
    H   -2.0610000000       -2.5430000000       -0.0360000000     


--Link1--
%chk=ala
#HF/6-31G* SCF=tight Test Pop=MK iop(6/33=2) iop(6/42=6)
#geom=allcheck


